NAME          BLANK   
ROWS
 N  OBJROW
 L  R0000000
COLUMNS
    C0000000  OBJROW     -662.         R0000000  403.        
    C0000001  OBJROW     -149.         R0000000  128.        
    C0000002  OBJROW     -200.         R0000000  435.        
    C0000003  OBJROW     -259.         R0000000  647.        
    C0000004  OBJROW     -735.         R0000000  148.        
    C0000005  OBJROW     -28.          R0000000  182.        
    C0000006  OBJROW     -505.         R0000000  64.         
    C0000007  OBJROW     -315.         R0000000  956.        
    C0000008  OBJROW     -206.         R0000000  788.        
    C0000009  OBJROW     -888.         R0000000  888.        
RHS
    RHS       R0000000  13865.      
BOUNDS
 BV BOUND     C0000000  1.          
 BV BOUND     C0000001  1.          
 BV BOUND     C0000002  1.          
 BV BOUND     C0000003  1.          
 BV BOUND     C0000004  1.          
 BV BOUND     C0000005  1.          
 BV BOUND     C0000006  1.          
 BV BOUND     C0000007  1.          
 BV BOUND     C0000008  1.          
 BV BOUND     C0000009  1.          
ENDATA
